
Gurobi 9.5.0 (win64) logging started Tue Dec  7 12:26:59 2021

Set parameter LogFile to value "../results/logs/log_2021_12_07_12_26.csv_2_10.log"
Set parameter Method to value 3
Gurobi Optimizer version 9.5.0 build v9.5.0rc5 (win64)
Thread count: 6 physical cores, 12 logical processors, using up to 12 threads
Optimize a model with 7793 rows, 9882 columns and 42118 nonzeros
Model fingerprint: 0xa807d5c2
Variable types: 4941 continuous, 4941 integer (4941 binary)
Coefficient statistics:
  Matrix range     [1e+00, 2e+00]
  Objective range  [1e+00, 1e+00]
  Bounds range     [1e+00, 1e+00]
  RHS range        [1e+00, 1e+01]
Found heuristic solution: objective 3353.0000000
Presolve removed 7455 rows and 9420 columns
Presolve time: 0.02s
Presolved: 338 rows, 462 columns, 1285 nonzeros
Variable types: 153 continuous, 309 integer (255 binary)
Found heuristic solution: objective 3363.0000000

Root relaxation: objective 3.450000e+03, 453 iterations, 0.00 seconds (0.00 work units)

    Nodes    |    Current Node    |     Objective Bounds      |     Work
 Expl Unexpl |  Obj  Depth IntInf | Incumbent    BestBd   Gap | It/Node Time

     0     0 3450.00000    0   84 3363.00000 3450.00000  2.59%     -    0s
H    0     0                    3382.0000000 3450.00000  2.01%     -    0s
H    0     0                    3383.0000000 3450.00000  1.98%     -    0s
     0     0 3402.90000    0   29 3383.00000 3402.90000  0.59%     -    0s
H    0     0                    3389.0000000 3402.90000  0.41%     -    0s
     0     0 3401.00000    0   34 3389.00000 3401.00000  0.35%     -    0s
H    0     0                    3396.0000000 3397.41852  0.04%     -    0s
     0     0     cutoff    0      3396.00000 3396.00000  0.00%     -    0s

Cutting planes:
  Gomory: 45
  Implied bound: 9
  MIR: 100
  RLT: 17
  Relax-and-lift: 2

Explored 1 nodes (652 simplex iterations) in 0.07 seconds (0.03 work units)
Thread count was 12 (of 12 available processors)

Solution count 6: 3396 3389 3383 ... 3353

Optimal solution found (tolerance 1.00e-04)
Best objective 3.396000000000e+03, best bound 3.396000000000e+03, gap 0.0000%
